15
-1 265 414 538 295 156 488 291 150 274 432 430 646 126 327 
265 -1 250 289 437 397 339 213 403 477 610 519 813 387 442 
414 250 -1 209 403 477 88 135 564 493 571 410 736 535 381 
538 289 209 -1 602 639 244 319 685 681 774 620 945 664 585 
295 437 403 602 -1 195 428 282 368 111 176 145 376 330 46 
156 397 477 639 195 -1 531 342 175 130 289 341 502 138 239 
488 339 88 244 428 531 -1 197 635 528 583 404 728 604 397 
291 213 135 319 282 342 197 -1 438 363 457 324 640 407 269 
150 403 564 685 368 175 635 438 -1 300 455 514 661 38 410 
274 477 493 681 111 130 528 363 300 -1 160 240 373 265 156 
432 610 571 774 176 289 583 457 455 160 -1 198 214 421 189 
430 519 410 620 145 341 404 324 514 240 198 -1 325 475 104 
646 813 736 945 376 502 728 640 661 373 214 325 -1 629 373 
126 387 535 664 330 138 604 407 38 265 421 475 629 -1 372 
327 442 381 585 46 239 397 269 410 156 189 104 373 372 -1 
